
Gurobi 6.5.2 (win64) logging started 07/23/16 03:04:28


Gurobi 6.5.2 (win64) logging started 07/23/16 03:04:28

Optimize a model with 14950 rows, 1221 columns and 32707 nonzeros
Coefficient statistics:
  Matrix range    [4e-06, 1e+03]
  Objective range [1e+00, 1e+00]
  Bounds range    [1e+00, 1e+00]
  RHS range       [1e+00, 1e+03]
Found heuristic solution: objective 3.81597e+06
Presolve removed 14922 rows and 1193 columns
Presolve time: 0.01s
Presolved: 28 rows, 28 columns, 84 nonzeros
Found heuristic solution: objective 3815748.8759
Variable types: 28 continuous, 0 integer (0 binary)

Root relaxation: objective 1.884998e+02, 20 iterations, 0.00 seconds

    Nodes    |    Current Node    |     Objective Bounds      |     Work
 Expl Unexpl |  Obj  Depth IntInf | Incumbent    BestBd   Gap | It/Node Time

*    0     0               0     188.4997755  188.49978  0.00%     -    0s

Explored 0 nodes (20 simplex iterations) in 0.02 seconds
Thread count was 8 (of 8 available processors)

Optimal solution found (tolerance 1.00e-04)
Best objective 1.884997754681e+02, best bound 1.884997754681e+02, gap 0.0%

Wrote requested result file 'H2\instance19\\Results19EC_Sol5.lp'

